c strEdges: 125  randomEdges: 504 
c degrees:  1  2 
c girth: Inf max: -43.604516  
c Hgirth mixed MAXCUT instance
c generated from an undirected graph
c to solve unweighted MaxCut
p cnf 140 1258
40 1 0
-40 -1 0
65 101 0
-65 -101 0
65 73 0
-65 -73 0
72 44 0
-72 -44 0
72 66 0
-72 -66 0
31 62 0
-31 -62 0
34 75 0
-34 -75 0
34 11 0
-34 -11 0
92 55 0
-92 -55 0
92 71 0
-92 -71 0
27 66 0
-27 -66 0
27 87 0
-27 -87 0
14 18 0
-14 -18 0
14 33 0
-14 -33 0
57 103 0
-57 -103 0
57 100 0
-57 -100 0
90 102 0
-90 -102 0
90 81 0
-90 -81 0
42 11 0
-42 -11 0
42 95 0
-42 -95 0
56 49 0
-56 -49 0
56 47 0
-56 -47 0
113 96 0
-113 -96 0
113 108 0
-113 -108 0
5 79 0
-5 -79 0
114 7 0
-114 -7 0
114 94 0
-114 -94 0
21 84 0
-21 -84 0
21 79 0
-21 -79 0
61 82 0
-61 -82 0
61 28 0
-61 -28 0
67 28 0
-67 -28 0
67 111 0
-67 -111 0
106 73 0
-106 -73 0
106 7 0
-106 -7 0
43 69 0
-43 -69 0
43 50 0
-43 -50 0
91 47 0
-91 -47 0
12 23 0
-12 -23 0
12 89 0
-12 -89 0
22 16 0
-22 -16 0
22 83 0
-22 -83 0
77 136 0
-77 -136 0
77 17 0
-77 -17 0
46 137 0
-46 -137 0
46 3 0
-46 -3 0
60 9 0
-60 -9 0
60 103 0
-60 -103 0
98 125 0
-98 -125 0
98 131 0
-98 -131 0
48 104 0
-48 -104 0
48 62 0
-48 -62 0
135 85 0
-135 -85 0
135 137 0
-135 -137 0
10 76 0
-10 -76 0
10 116 0
-10 -116 0
127 119 0
-127 -119 0
29 35 0
-29 -35 0
29 1 0
-29 -1 0
24 74 0
-24 -74 0
24 76 0
-24 -76 0
4 88 0
-4 -88 0
4 49 0
-4 -49 0
68 139 0
-68 -139 0
68 6 0
-68 -6 0
58 111 0
-58 -111 0
58 102 0
-58 -102 0
128 3 0
-128 -3 0
128 26 0
-128 -26 0
52 126 0
-52 -126 0
130 107 0
-130 -107 0
130 82 0
-130 -82 0
133 17 0
-133 -17 0
133 115 0
-133 -115 0
118 36 0
-118 -36 0
53 121 0
-53 -121 0
53 55 0
-53 -55 0
86 131 0
-86 -131 0
86 101 0
-86 -101 0
51 89 0
-51 -89 0
134 116 0
-134 -116 0
15 78 0
-15 -78 0
15 126 0
-15 -126 0
41 26 0
-41 -26 0
138 124 0
-138 -124 0
138 84 0
-138 -84 0
117 59 0
-117 -59 0
117 124 0
-117 -124 0
19 37 0
-19 -37 0
19 74 0
-19 -74 0
39 97 0
-39 -97 0
39 23 0
-39 -23 0
2 105 0
-2 -105 0
2 125 0
-2 -125 0
45 64 0
-45 -64 0
45 69 0
-45 -69 0
129 33 0
-129 -33 0
129 36 0
-129 -36 0
109 108 0
-109 -108 0
109 63 0
-109 -63 0
140 94 0
-140 -94 0
32 54 0
-32 -54 0
32 97 0
-32 -97 0
38 63 0
-38 -63 0
38 16 0
-38 -16 0
112 71 0
-112 -71 0
112 96 0
-112 -96 0
123 95 0
-123 -95 0
99 83 0
-99 -83 0
99 9 0
-99 -9 0
25 100 0
-25 -100 0
25 37 0
-25 -37 0
120 30 0
-120 -30 0
120 105 0
-120 -105 0
93 87 0
-93 -87 0
80 115 0
-80 -115 0
80 88 0
-80 -88 0
8 110 0
-8 -110 0
8 136 0
-8 -136 0
70 6 0
-70 -6 0
122 81 0
-122 -81 0
122 132 0
-122 -132 0
13 132 0
-13 -132 0
13 119 0
-13 -119 0
20 50 0
-20 -50 0
67 9 0
-67 -9 0
40 54 0
-40 -54 0
85 76 0
-85 -76 0
91 110 0
-91 -110 0
92 108 0
-92 -108 0
8 82 0
-8 -82 0
43 129 0
-43 -129 0
46 55 0
-46 -55 0
91 135 0
-91 -135 0
1 7 0
-1 -7 0
11 33 0
-11 -33 0
20 69 0
-20 -69 0
58 105 0
-58 -105 0
31 132 0
-31 -132 0
107 36 0
-107 -36 0
123 70 0
-123 -70 0
25 85 0
-25 -85 0
24 81 0
-24 -81 0
89 87 0
-89 -87 0
5 80 0
-5 -80 0
117 101 0
-117 -101 0
92 17 0
-92 -17 0
39 109 0
-39 -109 0
101 44 0
-101 -44 0
58 1 0
-58 -1 0
140 33 0
-140 -33 0
12 137 0
-12 -137 0
92 80 0
-92 -80 0
25 102 0
-25 -102 0
28 111 0
-28 -111 0
111 89 0
-111 -89 0
46 94 0
-46 -94 0
22 135 0
-22 -135 0
45 87 0
-45 -87 0
102 78 0
-102 -78 0
109 30 0
-109 -30 0
53 89 0
-53 -89 0
58 64 0
-58 -64 0
72 4 0
-72 -4 0
116 59 0
-116 -59 0
101 102 0
-101 -102 0
57 86 0
-57 -86 0
5 128 0
-5 -128 0
40 34 0
-40 -34 0
55 49 0
-55 -49 0
51 74 0
-51 -74 0
68 107 0
-68 -107 0
133 23 0
-133 -23 0
140 120 0
-140 -120 0
31 123 0
-31 -123 0
35 50 0
-35 -50 0
33 30 0
-33 -30 0
60 1 0
-60 -1 0
21 97 0
-21 -97 0
69 105 0
-69 -105 0
96 110 0
-96 -110 0
7 125 0
-7 -125 0
46 24 0
-46 -24 0
96 108 0
-96 -108 0
36 50 0
-36 -50 0
9 3 0
-9 -3 0
112 37 0
-112 -37 0
40 41 0
-40 -41 0
14 19 0
-14 -19 0
28 59 0
-28 -59 0
53 54 0
-53 -54 0
38 1 0
-38 -1 0
25 76 0
-25 -76 0
4 9 0
-4 -9 0
12 32 0
-12 -32 0
92 45 0
-92 -45 0
12 70 0
-12 -70 0
66 11 0
-66 -11 0
114 17 0
-114 -17 0
134 104 0
-134 -104 0
35 6 0
-35 -6 0
128 47 0
-128 -47 0
95 87 0
-95 -87 0
5 134 0
-5 -134 0
67 85 0
-67 -85 0
67 108 0
-67 -108 0
29 18 0
-29 -18 0
113 58 0
-113 -58 0
27 118 0
-27 -118 0
48 9 0
-48 -9 0
30 81 0
-30 -81 0
122 30 0
-122 -30 0
2 71 0
-2 -71 0
66 9 0
-66 -9 0
72 26 0
-72 -26 0
134 107 0
-134 -107 0
21 140 0
-21 -140 0
20 111 0
-20 -111 0
124 59 0
-124 -59 0
48 88 0
-48 -88 0
57 134 0
-57 -134 0
22 28 0
-22 -28 0
107 50 0
-107 -50 0
53 23 0
-53 -23 0
106 15 0
-106 -15 0
1 55 0
-1 -55 0
41 109 0
-41 -109 0
58 80 0
-58 -80 0
7 84 0
-7 -84 0
122 13 0
-122 -13 0
61 71 0
-61 -71 0
92 23 0
-92 -23 0
91 19 0
-91 -19 0
131 87 0
-131 -87 0
31 93 0
-31 -93 0
118 116 0
-118 -116 0
126 100 0
-126 -100 0
21 121 0
-21 -121 0
90 47 0
-90 -47 0
93 81 0
-93 -81 0
139 121 0
-139 -121 0
72 68 0
-72 -68 0
67 81 0
-67 -81 0
35 115 0
-35 -115 0
18 100 0
-18 -100 0
111 81 0
-111 -81 0
65 15 0
-65 -15 0
118 47 0
-118 -47 0
99 93 0
-99 -93 0
65 83 0
-65 -83 0
13 125 0
-13 -125 0
61 118 0
-61 -118 0
10 19 0
-10 -19 0
16 111 0
-16 -111 0
14 123 0
-14 -123 0
49 137 0
-49 -137 0
79 87 0
-79 -87 0
101 103 0
-101 -103 0
15 47 0
-15 -47 0
43 6 0
-43 -6 0
21 104 0
-21 -104 0
90 52 0
-90 -52 0
39 9 0
-39 -9 0
96 16 0
-96 -16 0
43 85 0
-43 -85 0
99 16 0
-99 -16 0
109 79 0
-109 -79 0
86 102 0
-86 -102 0
2 116 0
-2 -116 0
126 124 0
-126 -124 0
71 6 0
-71 -6 0
36 71 0
-36 -71 0
117 36 0
-117 -36 0
5 75 0
-5 -75 0
86 136 0
-86 -136 0
14 120 0
-14 -120 0
35 26 0
-35 -26 0
24 123 0
-24 -123 0
65 53 0
-65 -53 0
127 32 0
-127 -32 0
133 117 0
-133 -117 0
114 109 0
-114 -109 0
109 125 0
-109 -125 0
98 17 0
-98 -17 0
2 8 0
-2 -8 0
15 120 0
-15 -120 0
84 139 0
-84 -139 0
91 29 0
-91 -29 0
39 35 0
-39 -35 0
11 137 0
-11 -137 0
128 110 0
-128 -110 0
99 36 0
-99 -36 0
10 127 0
-10 -127 0
4 39 0
-4 -39 0
130 96 0
-130 -96 0
9 81 0
-9 -81 0
130 140 0
-130 -140 0
138 19 0
-138 -19 0
51 63 0
-51 -63 0
67 139 0
-67 -139 0
72 92 0
-72 -92 0
92 24 0
-92 -24 0
61 44 0
-61 -44 0
60 58 0
-60 -58 0
91 64 0
-91 -64 0
94 115 0
-94 -115 0
79 108 0
-79 -108 0
14 44 0
-14 -44 0
40 83 0
-40 -83 0
123 103 0
-123 -103 0
120 55 0
-120 -55 0
61 8 0
-61 -8 0
27 110 0
-27 -110 0
72 110 0
-72 -110 0
8 125 0
-8 -125 0
77 30 0
-77 -30 0
84 116 0
-84 -116 0
79 126 0
-79 -126 0
34 113 0
-34 -113 0
76 83 0
-76 -83 0
35 121 0
-35 -121 0
31 47 0
-31 -47 0
8 20 0
-8 -20 0
62 103 0
-62 -103 0
66 59 0
-66 -59 0
76 26 0
-76 -26 0
1 78 0
-1 -78 0
125 97 0
-125 -97 0
25 94 0
-25 -94 0
86 112 0
-86 -112 0
123 54 0
-123 -54 0
103 88 0
-103 -88 0
43 77 0
-43 -77 0
120 116 0
-120 -116 0
121 64 0
-121 -64 0
62 136 0
-62 -136 0
66 47 0
-66 -47 0
75 7 0
-75 -7 0
32 62 0
-32 -62 0
32 102 0
-32 -102 0
52 32 0
-52 -32 0
114 91 0
-114 -91 0
19 69 0
-19 -69 0
122 74 0
-122 -74 0
61 20 0
-61 -20 0
5 58 0
-5 -58 0
80 83 0
-80 -83 0
56 99 0
-56 -99 0
52 137 0
-52 -137 0
19 35 0
-19 -35 0
67 10 0
-67 -10 0
129 59 0
-129 -59 0
48 78 0
-48 -78 0
104 50 0
-104 -50 0
12 104 0
-12 -104 0
140 108 0
-140 -108 0
101 104 0
-101 -104 0
69 111 0
-69 -111 0
51 78 0
-51 -78 0
53 103 0
-53 -103 0
118 103 0
-118 -103 0
76 87 0
-76 -87 0
57 4 0
-57 -4 0
140 131 0
-140 -131 0
102 76 0
-102 -76 0
31 90 0
-31 -90 0
121 108 0
-121 -108 0
99 103 0
-99 -103 0
116 105 0
-116 -105 0
45 78 0
-45 -78 0
38 74 0
-38 -74 0
51 111 0
-51 -111 0
113 80 0
-113 -80 0
45 73 0
-45 -73 0
22 70 0
-22 -70 0
113 116 0
-113 -116 0
90 99 0
-90 -99 0
46 2 0
-46 -2 0
66 17 0
-66 -17 0
103 115 0
-103 -115 0
93 18 0
-93 -18 0
18 88 0
-18 -88 0
138 17 0
-138 -17 0
21 18 0
-21 -18 0
43 133 0
-43 -133 0
77 139 0
-77 -139 0
79 104 0
-79 -104 0
114 68 0
-114 -68 0
133 116 0
-133 -116 0
2 109 0
-2 -109 0
88 17 0
-88 -17 0
21 41 0
-21 -41 0
123 36 0
-123 -36 0
31 1 0
-31 -1 0
113 22 0
-113 -22 0
131 97 0
-131 -97 0
98 135 0
-98 -135 0
60 8 0
-60 -8 0
35 89 0
-35 -89 0
91 138 0
-91 -138 0
72 135 0
-72 -135 0
118 115 0
-118 -115 0
24 59 0
-24 -59 0
48 3 0
-48 -3 0
43 64 0
-43 -64 0
12 2 0
-12 -2 0
40 21 0
-40 -21 0
113 16 0
-113 -16 0
52 30 0
-52 -30 0
56 50 0
-56 -50 0
135 19 0
-135 -19 0
128 108 0
-128 -108 0
18 71 0
-18 -71 0
103 16 0
-103 -16 0
40 104 0
-40 -104 0
39 112 0
-39 -112 0
118 110 0
-118 -110 0
111 108 0
-111 -108 0
14 131 0
-14 -131 0
21 82 0
-21 -82 0
52 112 0
-52 -112 0
22 50 0
-22 -50 0
20 54 0
-20 -54 0
96 97 0
-96 -97 0
46 15 0
-46 -15 0
33 83 0
-33 -83 0
73 74 0
-73 -74 0
106 120 0
-106 -120 0
52 134 0
-52 -134 0
31 112 0
-31 -112 0
140 124 0
-140 -124 0
96 132 0
-96 -132 0
99 25 0
-99 -25 0
5 32 0
-5 -32 0
80 121 0
-80 -121 0
68 3 0
-68 -3 0
22 128 0
-22 -128 0
27 120 0
-27 -120 0
45 82 0
-45 -82 0
118 100 0
-118 -100 0
55 116 0
-55 -116 0
92 41 0
-92 -41 0
29 122 0
-29 -122 0
140 16 0
-140 -16 0
52 37 0
-52 -37 0
52 53 0
-52 -53 0
112 30 0
-112 -30 0
104 76 0
-104 -76 0
113 43 0
-113 -43 0
7 71 0
-7 -71 0
5 49 0
-5 -49 0
53 124 0
-53 -124 0
29 120 0
-29 -120 0
127 25 0
-127 -25 0
109 28 0
-109 -28 0
109 7 0
-109 -7 0
91 125 0
-91 -125 0
128 123 0
-128 -123 0
21 44 0
-21 -44 0
19 49 0
-19 -49 0
57 101 0
-57 -101 0
48 41 0
-48 -41 0
22 60 0
-22 -60 0
42 35 0
-42 -35 0
47 71 0
-47 -71 0
133 49 0
-133 -49 0
5 59 0
-5 -59 0
107 97 0
-107 -97 0
13 63 0
-13 -63 0
3 6 0
-3 -6 0
32 84 0
-32 -84 0
123 66 0
-123 -66 0
111 36 0
-111 -36 0
109 18 0
-109 -18 0
92 94 0
-92 -94 0
91 18 0
-91 -18 0
104 36 0
-104 -36 0
44 87 0
-44 -87 0
99 88 0
-99 -88 0
24 101 0
-24 -101 0
90 135 0
-90 -135 0
35 87 0
-35 -87 0
66 3 0
-66 -3 0
12 41 0
-12 -41 0
38 11 0
-38 -11 0
67 45 0
-67 -45 0
1 97 0
-1 -97 0
24 30 0
-24 -30 0
11 50 0
-11 -50 0
46 80 0
-46 -80 0
20 139 0
-20 -139 0
13 136 0
-13 -136 0
139 30 0
-139 -30 0
29 81 0
-29 -81 0
27 102 0
-27 -102 0
135 58 0
-135 -58 0
79 136 0
-79 -136 0
43 28 0
-43 -28 0
69 139 0
-69 -139 0
134 79 0
-134 -79 0
70 105 0
-70 -105 0
16 136 0
-16 -136 0
24 86 0
-24 -86 0
70 47 0
-70 -47 0
105 50 0
-105 -50 0
109 124 0
-109 -124 0
60 122 0
-60 -122 0
41 9 0
-41 -9 0
121 89 0
-121 -89 0
113 28 0
-113 -28 0
67 53 0
-67 -53 0
125 104 0
-125 -104 0
113 117 0
-113 -117 0
60 37 0
-60 -37 0
67 134 0
-67 -134 0
60 133 0
-60 -133 0
113 68 0
-113 -68 0
4 2 0
-4 -2 0
53 37 0
-53 -37 0
111 95 0
-111 -95 0
130 86 0
-130 -86 0
12 9 0
-12 -9 0
122 66 0
-122 -66 0
9 83 0
-9 -83 0
40 90 0
-40 -90 0
53 138 0
-53 -138 0
66 139 0
-66 -139 0
38 136 0
-38 -136 0
3 100 0
-3 -100 0
122 96 0
-122 -96 0
136 121 0
-136 -121 0
14 59 0
-14 -59 0
38 36 0
-38 -36 0
42 60 0
-42 -60 0
92 69 0
-92 -69 0
19 108 0
-19 -108 0
136 35 0
-136 -35 0
32 36 0
-32 -36 0
53 2 0
-53 -2 0
11 59 0
-11 -59 0
69 17 0
-69 -17 0
1 100 0
-1 -100 0
65 55 0
-65 -55 0
32 50 0
-32 -50 0
24 1 0
-24 -1 0
70 102 0
-70 -102 0
127 121 0
-127 -121 0
31 125 0
-31 -125 0
103 74 0
-103 -74 0
20 82 0
-20 -82 0
42 44 0
-42 -44 0
55 37 0
-55 -37 0
27 62 0
-27 -62 0
120 139 0
-120 -139 0
43 134 0
-43 -134 0
92 27 0
-92 -27 0
29 75 0
-29 -75 0
4 80 0
-4 -80 0
27 11 0
-27 -11 0
19 13 0
-19 -13 0
46 85 0
-46 -85 0
135 87 0
-135 -87 0
69 121 0
-69 -121 0
114 63 0
-114 -63 0
56 44 0
-56 -44 0
10 29 0
-10 -29 0
46 50 0
-46 -50 0
72 48 0
-72 -48 0
60 44 0
-60 -44 0
39 123 0
-39 -123 0
130 32 0
-130 -32 0
60 4 0
-60 -4 0
23 16 0
-23 -16 0
107 37 0
-107 -37 0
133 132 0
-133 -132 0
106 1 0
-106 -1 0
123 64 0
-123 -64 0
33 132 0
-33 -132 0
53 140 0
-53 -140 0
57 126 0
-57 -126 0
72 22 0
-72 -22 0
98 105 0
-98 -105 0
123 7 0
-123 -7 0
4 69 0
-4 -69 0
80 81 0
-80 -81 0
138 93 0
-138 -93 0
113 21 0
-113 -21 0
120 69 0
-120 -69 0
99 105 0
-99 -105 0
72 7 0
-72 -7 0
123 124 0
-123 -124 0
23 115 0
-23 -115 0
12 68 0
-12 -68 0
91 17 0
-91 -17 0
14 85 0
-14 -85 0
42 32 0
-42 -32 0
25 104 0
-25 -104 0
73 97 0
-73 -97 0
18 136 0
-18 -136 0
84 94 0
-84 -94 0
22 53 0
-22 -53 0
14 13 0
-14 -13 0
114 77 0
-114 -77 0
104 107 0
-104 -107 0
45 59 0
-45 -59 0
39 94 0
-39 -94 0
36 108 0
-36 -108 0
14 121 0
-14 -121 0
4 133 0
-4 -133 0
57 110 0
-57 -110 0
58 125 0
-58 -125 0
133 87 0
-133 -87 0
135 123 0
-135 -123 0
113 86 0
-113 -86 0
84 81 0
-84 -81 0
135 33 0
-135 -33 0
72 90 0
-72 -90 0
17 100 0
-17 -100 0
61 134 0
-61 -134 0
128 80 0
-128 -80 0
28 105 0
-28 -105 0
48 15 0
-48 -15 0
61 98 0
-61 -98 0
127 45 0
-127 -45 0
4 66 0
-4 -66 0
56 2 0
-56 -2 0
87 50 0
-87 -50 0
102 115 0
-102 -115 0
118 19 0
-118 -19 0
